p wcnf 129 194 195 
1 90 -128 0 
1 -128 -63 0 
1 105 80 0 
1 -41 -27 0 
1 -53 -114 0 
1 -68 8 0 
1 -28 111 0 
1 -67 21 0 
1 -104 -50 0 
1 -1 61 0 
1 18 71 0 
1 56 -102 0 
1 -59 -54 0 
1 43 -25 0 
1 -26 -40 0 
1 76 -102 0 
1 20 -100 0 
1 -125 -88 0 
1 -7 -67 0 
1 15 105 0 
1 67 59 0 
1 69 -116 0 
1 -57 108 0 
1 -101 48 0 
1 83 -111 0 
1 -105 8 0 
1 -46 -5 0 
1 -54 91 0 
1 30 20 0 
1 47 -60 0 
1 112 -125 0 
1 -116 -62 0 
1 80 -66 0 
1 101 -10 0 
1 -37 93 0 
1 74 2 0 
1 -25 105 0 
1 -112 16 0 
1 99 -89 0 
1 -96 -47 0 
1 63 -46 0 
1 -69 81 0 
1 -22 -56 0 
1 73 36 0 
1 125 105 0 
1 -7 44 0 
1 74 97 0 
1 39 -13 0 
1 -68 29 0 
1 -124 -62 0 
1 80 -53 0 
1 -80 -67 0 
1 -88 -58 0 
1 -22 78 0 
1 40 24 0 
1 -41 -86 0 
1 -5 -2 0 
1 35 33 0 
1 -106 18 0 
1 10 100 0 
1 -92 -99 0 
1 -2 107 0 
1 3 -105 0 
1 3 53 0 
1 8 116 0 
1 51 11 0 
1 40 108 0 
1 -48 -72 0 
1 105 -82 0 
1 -73 -101 0 
1 49 83 0 
1 129 -74 0 
1 120 115 0 
1 78 85 0 
1 -95 -91 0 
1 117 -107 0 
1 17 -44 0 
1 -18 -89 0 
1 105 -54 0 
1 50 62 0 
1 108 19 0 
1 123 87 0 
1 -2 -117 0 
1 83 -75 0 
1 -24 -25 0 
1 -35 71 0 
1 28 -17 0 
1 5 -10 0 
1 89 -66 0 
1 -21 -127 0 
1 -3 -126 0 
1 -62 -114 0 
1 -91 -41 0 
1 -27 52 0 
1 -39 -54 0 
1 81 -10 0 
1 -117 30 0 
1 49 110 0 
1 16 33 0 
1 -83 55 0 
1 -65 -45 0 
1 101 47 0 
1 16 68 0 
1 -12 39 0 
1 127 62 0 
1 21 105 0 
1 35 66 0 
1 106 94 0 
1 37 -18 0 
1 121 9 0 
1 -65 72 0 
1 -38 -105 0 
1 36 -119 0 
1 -60 -74 0 
1 61 12 0 
1 117 -52 0 
1 8 -120 0 
1 -12 -19 0 
1 -119 -108 0 
1 88 47 0 
1 -49 35 0 
1 45 -116 0 
1 -77 -95 0 
1 -59 -57 0 
1 8 21 0 
1 19 73 0 
1 -81 115 0 
1 -112 60 0 
1 106 40 0 
1 74 92 0 
1 13 -105 0 
1 -91 -27 0 
1 -10 -37 0 
1 -21 28 0 
1 36 -29 0 
1 58 -1 0 
1 -29 -10 0 
1 14 -105 0 
1 78 -70 0 
1 46 -123 0 
1 94 48 0 
1 124 -71 0 
1 118 -50 0 
1 112 73 0 
1 43 -106 0 
1 89 117 0 
1 95 -24 0 
1 120 45 0 
1 123 65 0 
1 -121 -117 0 
1 21 -85 0 
1 94 -74 0 
1 -59 -66 0 
1 40 -117 0 
1 -123 113 0 
1 70 -122 0 
1 -36 -71 0 
1 -46 101 0 
1 -54 1 0 
1 -95 -10 0 
1 79 -48 0 
1 -73 54 0 
1 -10 41 0 
1 45 94 0 
1 -16 -2 0 
1 -23 -121 0 
1 116 51 0 
1 63 97 0 
1 -49 24 0 
1 86 -121 0 
1 -43 81 0 
1 74 -111 0 
1 47 91 0 
1 57 69 0 
1 -18 33 0 
1 -58 -52 0 
1 -119 -60 0 
1 76 -7 0 
1 90 -102 0 
1 39 -100 0 
1 113 77 0 
1 129 -98 0 
1 -112 91 0 
1 20 -80 0 
1 -26 -35 0 
1 -51 47 0 
1 2 -81 0 
1 -31 -71 0 
1 -121 -58 0 
1 -45 65 0 
1 -34 119 0 
1 95 -52 0 
1 -115 -120 0 
1 28 103 0 
